TOUR_SECTION
1
8
102
40
195
190
179
138
147
62
144
162
61
47
141
59
109
116
18
31
164
16
150
170
98
50
134
201
32
163
173
97
70
192
198
57
157
188
187
132
99
96
165
128
95
23
112
111
93
12
28
92
87
64
66
167
104
90
41
10
67
91
142
154
197
68
94
33
123
182
129
55
191
14
194
143
29
38
13
151
77
52
88
25
110
176
101
155
22
136
85
89
4
127
161
122
49
168
156
146
119
7
78
130
24
3
121
114
86
174
72
53
48
45
35
180
60
158
169
124
145
139
36
54
73
196
21
106
117
30
44
135
51
131
74
80
200
166
175
120
69
84
172
193
189
19
37
183
75
27
100
199
152
6
42
11
140
186
184
17
56
125
63
76
9
113
126
177
103
105
65
5
160
159
133
43
171
118
115
34
82
81
149
181
108
71
39
2
107
79
26
58
137
15
83
148
20
153
178
46
185
-1
EOF